Maximize
  - 3.6220185226951 edge_0_1_0_0 - 2.2370898657746 edge_0_2_0_0
   - 1.070158344 edge_0_3_0_0 - 3.535780085365 edge_0_4_0_0
   - 0.8177448843907 edge_0_5_0_0 - 1.3609008791096 edge_0_6_0_0
   - 1.4708629605384 edge_0_7_0_0 - 3.6516450999915 edge_0_8_0_0
   - 3.68815 edge_0_9_0_0 - 1.73856953435 edge_0_14_0_0
   - 3.2730288798207 edge_0_16_0_0 - 3.18118 edge_0_19_0_0
   + 0.0144841379971634 edge_1_2_0_0 + 0.1177628817505739 edge_1_3_0_0
   - 0.2205286129376348 edge_1_5_0_0 - 0.6548597013122633 edge_1_7_0_0
   - 0.9708310873897563 edge_1_8_0_0 - 0.4893753968308991 edge_1_9_0_0
   - 0.0029522749058017 edge_2_1_0_0 + 0.6301935345075858 edge_2_3_0_0
   - 0.1557341125355527 edge_2_4_0_0 + 0.3648082028312886 edge_2_5_0_0
   - 0.2174862062627944 edge_2_6_0_0 + 1.680831881546309 edge_2_7_0_0
   + 1.083317362357916 edge_2_8_0_0 + 0.92866855423888 edge_2_9_0_0
   + 0.3981027440937739 edge_2_10_0_0 - 0.1784333133864685 edge_2_11_0_0
   + 0.0766567186324484 edge_2_14_0_0 - 0.5017087688962999 edge_2_19_0_0
   + 1.512507345947993 edge_2_20_0_0 + 1.650145918601388 edge_3_1_0_0
   + 2.31762719193676 edge_3_2_0_0 + 0.2502583766812115 edge_3_4_0_0
   + 0.2380380191907563 edge_3_6_0_0 + 2.319218218104592 edge_3_7_0_0
   + 1.590501869502744 edge_3_9_0_0 + 2.082778700674751 edge_3_10_0_0
   - 0.154342078975084 edge_3_12_0_0 - 0.5237624785478555 edge_3_13_0_0
   + 1.923600751882234 edge_3_14_0_0 - 0.0892845878410319 edge_3_15_0_0
   + 1.618716390612554 edge_3_16_0_0 - 0.6074098616261019 edge_3_17_0_0
   - 2.002990737998855 edge_3_18_0_0 + 1.8459517995104 edge_3_19_0_0
   + 5.537864307213259 edge_3_20_0_0 - 0.9296070631836609 edge_4_1_0_0
   - 0.777224488387308 edge_4_2_0_0 - 0.6732987150467806 edge_4_3_0_0
   + 0.516925702774648 edge_4_6_0_0 + 0.7043080869674837 edge_4_7_0_0
   + 0.4485092107140938 edge_4_10_0_0 + 0.154004223381991 edge_4_12_0_0
   - 0.6347820750233178 edge_4_13_0_0 - 0.4949089256772958 edge_4_15_0_0
   - 0.6269962104622109 edge_4_17_0_0 + 0.4945946500495655 edge_5_1_0_0
   + 0.8758653356695372 edge_5_2_0_0 + 1.233818148279408 edge_5_7_0_0
   + 0.5322087368975527 edge_5_8_0_0 + 0.28299956211657 edge_5_9_0_0
   + 0.4731756801396773 edge_5_10_0_0 - 0.5217831630309765 edge_5_11_0_0
   + 0.0562876910464327 edge_5_14_0_0 - 0.949503489106131 edge_5_16_0_0
   - 0.5271200257871586 edge_5_17_0_0 - 0.49081344406267 edge_5_19_0_0
   + 1.1552394242579 edge_5_20_0_0 - 0.0677724700139588 edge_6_2_0_0
   + 0.3461448736682772 edge_6_4_0_0 + 0.1938320129747077 edge_6_7_0_0
   - 0.2108370111827544 edge_6_12_0_0 + 0.2528236604942638 edge_7_1_0_0
   + 1.534102590251903 edge_7_2_0_0 + 0.1963197251944268 edge_7_3_0_0
   + 0.6555401707662646 edge_7_4_0_0 + 1.039239087684203 edge_7_5_0_0
   + 2.481362599422484 edge_7_6_0_0 + 0.9514286468236224 edge_7_7_0_0
   + 1.966021301793935 edge_7_8_0_0 + 2.223750607654373 edge_7_9_0_0
   + 1.884655226195203 edge_7_10_0_0 + 0.4344520303114272 edge_7_11_0_0
   - 0.066865297091453 edge_7_12_0_0 + 0.0636715549306143 edge_7_13_0_0
   + 1.181267110293518 edge_7_14_0_0 - 0.1933814810164861 edge_7_15_0_0
   + 0.6289937234717451 edge_7_16_0_0 - 0.512593263260502 edge_7_17_0_0
   - 0.2445418033227228 edge_7_18_0_0 - 0.4730019424326 edge_7_19_0_0
   + 3.007840256467921 edge_7_20_0_0 - 0.410958132238203 edge_8_1_0_0
   + 0.2323514147203674 edge_8_2_0_0 + 0.1237980717843557 edge_8_5_0_0
   + 0.6461438713601428 edge_8_7_0_0 + 1.2066631384473 edge_8_9_0_0
   + 1.074478643952963 edge_8_10_0_0 - 0.0227353149021531 edge_8_11_0_0
   - 0.0646824439524377 edge_8_14_0_0 - 0.3224386146380733 edge_8_16_0_0
   - 0.7656044143340274 edge_8_17_0_0 - 0.80515054811943 edge_8_19_0_0
   + 0.6782690083113 edge_8_20_0_0 - 0.4249025001831 edge_9_1_0_0
   + 0.48984276487536 edge_9_2_0_0 - 0.7053925910228381 edge_9_3_0_0
   + 0.4296866207266 edge_9_5_0_0 + 0.5491580738756632 edge_9_6_0_0
   + 0.5693485233231501 edge_9_7_0_0 + 1.2827047294143 edge_9_8_0_0
   + 2.390873890694 edge_9_10_0_0 + 0.81064624459538 edge_9_11_0_0
   - 0.3701861851146286 edge_9_12_0_0 - 0.9068141114075913 edge_9_13_0_0
   + 0.8790418811771099 edge_9_14_0_0 - 0.9812682728040643 edge_9_15_0_0
   - 0.20859666776624 edge_9_16_0_0 - 0.9576700469356508 edge_9_17_0_0
   - 0.44063513194708 edge_9_19_0_0 + 1.240956736276813 edge_9_20_0_0
   - 1.346343208658209 edge_10_1_0_0 - 0.3241770442177247 edge_10_6_0_0
   - 0.3948432218401426 edge_10_7_0_0 - 1.579279374845854 edge_11_1_0_0
   - 1.184775352922358 edge_11_2_0_0 - 0.6060367700190792 edge_11_5_0_0
   - 1.185446065925182 edge_11_7_0_0 - 1.312005822412791 edge_11_8_0_0
   - 0.60018073599718 edge_11_9_0_0 - 0.1879346785302716 edge_11_10_0_0
   - 0.0178559545223219 edge_11_14_0_0 - 0.8817438465371136 edge_11_16_0_0
   - 0.40452318851212 edge_11_20_0_0 - 1.817120342854351 edge_12_1_0_0
   - 1.40824710901693 edge_12_9_0_0 - 0.4992781733253008 edge_12_10_0_0
   + 0.0732844194003487 edge_12_13_0_0 - 0.3187528323534665 edge_12_14_0_0
   - 0.3774245844217481 edge_12_15_0_0 - 0.1881916148418244 edge_12_16_0_0
   - 0.7500937134245185 edge_12_18_0_0 - 0.52926655203935 edge_12_19_0_0
   - 0.557266011304652 edge_13_10_0_0 - 0.2195736506492098 edge_13_12_0_0
   - 0.1953535456761618 edge_13_14_0_0 + 0.7026811647355431 edge_13_15_0_0
   + 0.364798039489393 edge_13_16_0_0 - 0.5989027589314833 edge_13_17_0_0
   - 0.00581953755666314 edge_13_18_0_0 + 0.043253197763349 edge_13_19_0_0
   + 0.8843288516697622 edge_13_20_0_0 + 0.9739031064921969 edge_14_1_0_0
   + 0.1439947061873978 edge_14_2_0_0 - 0.1461675930343259 edge_14_3_0_0
   - 0.2730295370399928 edge_14_4_0_0 + 0.3567552222438309 edge_14_5_0_0
   - 0.0994407190596998 edge_14_6_0_0 + 0.3836149220278422 edge_14_7_0_0
   - 0.3315707396496749 edge_14_8_0_0 + 0.9534162791466499 edge_14_9_0_0
   + 1.60538283268104 edge_14_10_0_0 + 1.200124449784325 edge_14_11_0_0
   + 2.591930695611088 edge_14_12_0_0 + 2.830536969257845 edge_14_13_0_0
   + 2.633332733325747 edge_14_15_0_0 + 3.129628543138506 edge_14_16_0_0
   + 1.201414107780797 edge_14_17_0_0 + 1.006486112671603 edge_14_18_0_0
   + 2.607323931 edge_14_19_0_0 + 3.136663819136113 edge_14_20_0_0
   - 0.4101071093641245 edge_15_3_0_0 - 0.8572349274521825 edge_15_7_0_0
   - 1.022497074419295 edge_15_9_0_0 + 0.0181354987110936 edge_15_12_0_0
   + 0.5653237392213555 edge_15_13_0_0 + 0.9404691239037872 edge_15_14_0_0
   + 0.6994581469100143 edge_15_16_0_0 - 0.3717664789224772 edge_15_17_0_0
   + 0.0724571929142796 edge_15_18_0_0 + 0.4790004579810599 edge_15_19_0_0
   + 0.3992197718298367 edge_15_20_0_0 - 0.4696663971309087 edge_16_1_0_0
   - 0.9491058681242446 edge_16_2_0_0 - 1.494802946846268 edge_16_3_0_0
   - 0.6337695685355372 edge_16_4_0_0 - 0.2688459038276205 edge_16_6_0_0
   - 0.6767576893017384 edge_16_7_0_0 + 0.1967760164749829 edge_16_10_0_0
   - 0.3771075506618488 edge_16_11_0_0 + 0.9464989692020565 edge_16_12_0_0
   + 1.410278786427255 edge_16_13_0_0 + 1.146148989408907 edge_16_14_0_0
   + 2.478591744137144 edge_16_15_0_0 + 0.1466189406540288 edge_16_17_0_0
   + 0.575735735658808 edge_16_18_0_0 + 0.6092313614595344 edge_16_19_0_0
   + 3.838226610742311 edge_16_20_0_0 + 1.011590789712458 edge_17_16_0_0
   + 0.8337580567863238 edge_17_18_0_0 + 0.66186369635752 edge_17_19_0_0
   - 0.9561549632177735 edge_18_13_0_0 + 0.2794532174949548 edge_18_14_0_0
   - 1.07964731340573 edge_18_15_0_0 - 0.753997811811397 edge_18_16_0_0
   + 0.3441808231814031 edge_18_17_0_0 + 0.1587235505434814 edge_18_19_0_0
   + 0.3452693650256421 edge_18_20_0_0 - 0.83649112883293 edge_19_1_0_0
   - 0.80524961348 edge_19_2_0_0 - 0.66946787324228 edge_19_3_0_0
   - 0.525465144656 edge_19_5_0_0 - 1.509273434632 edge_19_7_0_0
   - 0.963119 edge_19_9_0_0 - 0.059168086190015 edge_19_10_0_0
   + 0.6376261777336201 edge_19_11_0_0 + 1.1488223529679 edge_19_12_0_0
   + 0.9001985032372499 edge_19_13_0_0 + 0.050124163199262 edge_19_14_0_0
   + 0.7601064773183099 edge_19_15_0_0 + 1.1925076058384 edge_19_16_0_0
   + 2.9678902907048 edge_19_17_0_0 + 3.709787031864 edge_19_18_0_0
   + 2.7215682037638 edge_19_20_0_0 - 1.418568187285265 edge_20_19_0_0
Subject To
 one_parent_1: edge_0_1_0_0 + edge_2_1_0_0 + edge_3_1_0_0 + edge_4_1_0_0
   + edge_5_1_0_0 + edge_7_1_0_0 + edge_8_1_0_0 + edge_9_1_0_0
   + edge_10_1_0_0 + edge_11_1_0_0 + edge_12_1_0_0 + edge_14_1_0_0
   + edge_16_1_0_0 + edge_19_1_0_0 = 1
 consume_one_flow_unit_1: flow_0_1_0_0 - flow_1_2_0_0 - flow_1_3_0_0
   - flow_1_5_0_0 - flow_1_7_0_0 - flow_1_8_0_0 - flow_1_9_0_0
   + flow_2_1_0_0 + flow_3_1_0_0 + flow_4_1_0_0 + flow_5_1_0_0
   + flow_7_1_0_0 + flow_8_1_0_0 + flow_9_1_0_0 + flow_10_1_0_0
   + flow_11_1_0_0 + flow_12_1_0_0 + flow_14_1_0_0 + flow_16_1_0_0
   + flow_19_1_0_0 = 1
 one_parent_2: edge_0_2_0_0 + edge_1_2_0_0 + edge_3_2_0_0 + edge_4_2_0_0
   + edge_5_2_0_0 + edge_6_2_0_0 + edge_7_2_0_0 + edge_8_2_0_0
   + edge_9_2_0_0 + edge_11_2_0_0 + edge_14_2_0_0 + edge_16_2_0_0
   + edge_19_2_0_0 = 1
 consume_one_flow_unit_2: flow_0_2_0_0 + flow_1_2_0_0 - flow_2_1_0_0
   - flow_2_3_0_0 - flow_2_4_0_0 - flow_2_5_0_0 - flow_2_6_0_0
   - flow_2_7_0_0 - flow_2_8_0_0 - flow_2_9_0_0 - flow_2_10_0_0
   - flow_2_11_0_0 - flow_2_14_0_0 - flow_2_19_0_0 - flow_2_20_0_0
   + flow_3_2_0_0 + flow_4_2_0_0 + flow_5_2_0_0 + flow_6_2_0_0
   + flow_7_2_0_0 + flow_8_2_0_0 + flow_9_2_0_0 + flow_11_2_0_0
   + flow_14_2_0_0 + flow_16_2_0_0 + flow_19_2_0_0 = 1
 one_parent_3: edge_0_3_0_0 + edge_1_3_0_0 + edge_2_3_0_0 + edge_4_3_0_0
   + edge_7_3_0_0 + edge_9_3_0_0 + edge_14_3_0_0 + edge_15_3_0_0
   + edge_16_3_0_0 + edge_19_3_0_0 = 1
 consume_one_flow_unit_3: flow_0_3_0_0 + flow_1_3_0_0 + flow_2_3_0_0
   - flow_3_1_0_0 - flow_3_2_0_0 - flow_3_4_0_0 - flow_3_6_0_0
   - flow_3_7_0_0 - flow_3_9_0_0 - flow_3_10_0_0 - flow_3_12_0_0
   - flow_3_13_0_0 - flow_3_14_0_0 - flow_3_15_0_0 - flow_3_16_0_0
   - flow_3_17_0_0 - flow_3_18_0_0 - flow_3_19_0_0 - flow_3_20_0_0
   + flow_4_3_0_0 + flow_7_3_0_0 + flow_9_3_0_0 + flow_14_3_0_0
   + flow_15_3_0_0 + flow_16_3_0_0 + flow_19_3_0_0 = 1
 one_parent_4: edge_0_4_0_0 + edge_2_4_0_0 + edge_3_4_0_0 + edge_6_4_0_0
   + edge_7_4_0_0 + edge_14_4_0_0 + edge_16_4_0_0 = 1
 consume_one_flow_unit_4: flow_0_4_0_0 + flow_2_4_0_0 + flow_3_4_0_0
   - flow_4_1_0_0 - flow_4_2_0_0 - flow_4_3_0_0 - flow_4_6_0_0
   - flow_4_7_0_0 - flow_4_10_0_0 - flow_4_12_0_0 - flow_4_13_0_0
   - flow_4_15_0_0 - flow_4_17_0_0 + flow_6_4_0_0 + flow_7_4_0_0
   + flow_14_4_0_0 + flow_16_4_0_0 = 1
 one_parent_5: edge_0_5_0_0 + edge_1_5_0_0 + edge_2_5_0_0 + edge_7_5_0_0
   + edge_8_5_0_0 + edge_9_5_0_0 + edge_11_5_0_0 + edge_14_5_0_0
   + edge_19_5_0_0 = 1
 consume_one_flow_unit_5: flow_0_5_0_0 + flow_1_5_0_0 + flow_2_5_0_0
   - flow_5_1_0_0 - flow_5_2_0_0 - flow_5_7_0_0 - flow_5_8_0_0
   - flow_5_9_0_0 - flow_5_10_0_0 - flow_5_11_0_0 - flow_5_14_0_0
   - flow_5_16_0_0 - flow_5_17_0_0 - flow_5_19_0_0 - flow_5_20_0_0
   + flow_7_5_0_0 + flow_8_5_0_0 + flow_9_5_0_0 + flow_11_5_0_0
   + flow_14_5_0_0 + flow_19_5_0_0 = 1
 one_parent_6: edge_0_6_0_0 + edge_2_6_0_0 + edge_3_6_0_0 + edge_4_6_0_0
   + edge_7_6_0_0 + edge_9_6_0_0 + edge_10_6_0_0 + edge_14_6_0_0
   + edge_16_6_0_0 = 1
 consume_one_flow_unit_6: flow_0_6_0_0 + flow_2_6_0_0 + flow_3_6_0_0
   + flow_4_6_0_0 - flow_6_2_0_0 - flow_6_4_0_0 - flow_6_7_0_0
   - flow_6_12_0_0 + flow_7_6_0_0 + flow_9_6_0_0 + flow_10_6_0_0
   + flow_14_6_0_0 + flow_16_6_0_0 = 1
 one_parent_7: edge_0_7_0_0 + edge_1_7_0_0 + edge_2_7_0_0 + edge_3_7_0_0
   + edge_4_7_0_0 + edge_5_7_0_0 + edge_6_7_0_0 + edge_7_7_0_0
   + edge_8_7_0_0 + edge_9_7_0_0 + edge_10_7_0_0 + edge_11_7_0_0
   + edge_14_7_0_0 + edge_15_7_0_0 + edge_16_7_0_0 + edge_19_7_0_0 = 1
 consume_one_flow_unit_7: flow_0_7_0_0 + flow_1_7_0_0 + flow_2_7_0_0
   + flow_3_7_0_0 + flow_4_7_0_0 + flow_5_7_0_0 + flow_6_7_0_0
   - flow_7_1_0_0 - flow_7_2_0_0 - flow_7_3_0_0 - flow_7_4_0_0
   - flow_7_5_0_0 - flow_7_6_0_0 - flow_7_8_0_0 - flow_7_9_0_0
   - flow_7_10_0_0 - flow_7_11_0_0 - flow_7_12_0_0 - flow_7_13_0_0
   - flow_7_14_0_0 - flow_7_15_0_0 - flow_7_16_0_0 - flow_7_17_0_0
   - flow_7_18_0_0 - flow_7_19_0_0 - flow_7_20_0_0 + flow_8_7_0_0
   + flow_9_7_0_0 + flow_10_7_0_0 + flow_11_7_0_0 + flow_14_7_0_0
   + flow_15_7_0_0 + flow_16_7_0_0 + flow_19_7_0_0 = 1
 one_parent_8: edge_0_8_0_0 + edge_1_8_0_0 + edge_2_8_0_0 + edge_5_8_0_0
   + edge_7_8_0_0 + edge_9_8_0_0 + edge_11_8_0_0 + edge_14_8_0_0 = 1
 consume_one_flow_unit_8: flow_0_8_0_0 + flow_1_8_0_0 + flow_2_8_0_0
   + flow_5_8_0_0 + flow_7_8_0_0 - flow_8_1_0_0 - flow_8_2_0_0
   - flow_8_5_0_0 - flow_8_7_0_0 - flow_8_9_0_0 - flow_8_10_0_0
   - flow_8_11_0_0 - flow_8_14_0_0 - flow_8_16_0_0 - flow_8_17_0_0
   - flow_8_19_0_0 - flow_8_20_0_0 + flow_9_8_0_0 + flow_11_8_0_0
   + flow_14_8_0_0 = 1
 one_parent_9: edge_0_9_0_0 + edge_1_9_0_0 + edge_2_9_0_0 + edge_3_9_0_0
   + edge_5_9_0_0 + edge_7_9_0_0 + edge_8_9_0_0 + edge_11_9_0_0
   + edge_12_9_0_0 + edge_14_9_0_0 + edge_15_9_0_0 + edge_19_9_0_0 = 1
 consume_one_flow_unit_9: flow_0_9_0_0 + flow_1_9_0_0 + flow_2_9_0_0
   + flow_3_9_0_0 + flow_5_9_0_0 + flow_7_9_0_0 + flow_8_9_0_0
   - flow_9_1_0_0 - flow_9_2_0_0 - flow_9_3_0_0 - flow_9_5_0_0
   - flow_9_6_0_0 - flow_9_7_0_0 - flow_9_8_0_0 - flow_9_10_0_0
   - flow_9_11_0_0 - flow_9_12_0_0 - flow_9_13_0_0 - flow_9_14_0_0
   - flow_9_15_0_0 - flow_9_16_0_0 - flow_9_17_0_0 - flow_9_19_0_0
   - flow_9_20_0_0 + flow_11_9_0_0 + flow_12_9_0_0 + flow_14_9_0_0
   + flow_15_9_0_0 + flow_19_9_0_0 = 1
 one_parent_10: edge_2_10_0_0 + edge_3_10_0_0 + edge_4_10_0_0
   + edge_5_10_0_0 + edge_7_10_0_0 + edge_8_10_0_0 + edge_9_10_0_0
   + edge_11_10_0_0 + edge_12_10_0_0 + edge_13_10_0_0 + edge_14_10_0_0
   + edge_16_10_0_0 + edge_19_10_0_0 = 1
 consume_one_flow_unit_10: flow_2_10_0_0 + flow_3_10_0_0 + flow_4_10_0_0
   + flow_5_10_0_0 + flow_7_10_0_0 + flow_8_10_0_0 + flow_9_10_0_0
   - flow_10_1_0_0 - flow_10_6_0_0 - flow_10_7_0_0 + flow_11_10_0_0
   + flow_12_10_0_0 + flow_13_10_0_0 + flow_14_10_0_0 + flow_16_10_0_0
   + flow_19_10_0_0 = 1
 one_parent_11: edge_2_11_0_0 + edge_5_11_0_0 + edge_7_11_0_0
   + edge_8_11_0_0 + edge_9_11_0_0 + edge_14_11_0_0 + edge_16_11_0_0
   + edge_19_11_0_0 = 1
 consume_one_flow_unit_11: flow_2_11_0_0 + flow_5_11_0_0 + flow_7_11_0_0
   + flow_8_11_0_0 + flow_9_11_0_0 - flow_11_1_0_0 - flow_11_2_0_0
   - flow_11_5_0_0 - flow_11_7_0_0 - flow_11_8_0_0 - flow_11_9_0_0
   - flow_11_10_0_0 - flow_11_14_0_0 - flow_11_16_0_0 - flow_11_20_0_0
   + flow_14_11_0_0 + flow_16_11_0_0 + flow_19_11_0_0 = 1
 one_parent_12: edge_3_12_0_0 + edge_4_12_0_0 + edge_6_12_0_0
   + edge_7_12_0_0 + edge_9_12_0_0 + edge_13_12_0_0 + edge_14_12_0_0
   + edge_15_12_0_0 + edge_16_12_0_0 + edge_19_12_0_0 = 1
 consume_one_flow_unit_12: flow_3_12_0_0 + flow_4_12_0_0 + flow_6_12_0_0
   + flow_7_12_0_0 + flow_9_12_0_0 - flow_12_1_0_0 - flow_12_9_0_0
   - flow_12_10_0_0 - flow_12_13_0_0 - flow_12_14_0_0 - flow_12_15_0_0
   - flow_12_16_0_0 - flow_12_18_0_0 - flow_12_19_0_0 + flow_13_12_0_0
   + flow_14_12_0_0 + flow_15_12_0_0 + flow_16_12_0_0 + flow_19_12_0_0 = 1
 one_parent_13: edge_3_13_0_0 + edge_4_13_0_0 + edge_7_13_0_0
   + edge_9_13_0_0 + edge_12_13_0_0 + edge_14_13_0_0 + edge_15_13_0_0
   + edge_16_13_0_0 + edge_18_13_0_0 + edge_19_13_0_0 = 1
 consume_one_flow_unit_13: flow_3_13_0_0 + flow_4_13_0_0 + flow_7_13_0_0
   + flow_9_13_0_0 + flow_12_13_0_0 - flow_13_10_0_0 - flow_13_12_0_0
   - flow_13_14_0_0 - flow_13_15_0_0 - flow_13_16_0_0 - flow_13_17_0_0
   - flow_13_18_0_0 - flow_13_19_0_0 - flow_13_20_0_0 + flow_14_13_0_0
   + flow_15_13_0_0 + flow_16_13_0_0 + flow_18_13_0_0 + flow_19_13_0_0 = 1
 one_parent_14: edge_0_14_0_0 + edge_2_14_0_0 + edge_3_14_0_0
   + edge_5_14_0_0 + edge_7_14_0_0 + edge_8_14_0_0 + edge_9_14_0_0
   + edge_11_14_0_0 + edge_12_14_0_0 + edge_13_14_0_0 + edge_15_14_0_0
   + edge_16_14_0_0 + edge_18_14_0_0 + edge_19_14_0_0 = 1
 consume_one_flow_unit_14: flow_0_14_0_0 + flow_2_14_0_0 + flow_3_14_0_0
   + flow_5_14_0_0 + flow_7_14_0_0 + flow_8_14_0_0 + flow_9_14_0_0
   + flow_11_14_0_0 + flow_12_14_0_0 + flow_13_14_0_0 - flow_14_1_0_0
   - flow_14_2_0_0 - flow_14_3_0_0 - flow_14_4_0_0 - flow_14_5_0_0
   - flow_14_6_0_0 - flow_14_7_0_0 - flow_14_8_0_0 - flow_14_9_0_0
   - flow_14_10_0_0 - flow_14_11_0_0 - flow_14_12_0_0 - flow_14_13_0_0
   - flow_14_15_0_0 - flow_14_16_0_0 - flow_14_17_0_0 - flow_14_18_0_0
   - flow_14_19_0_0 - flow_14_20_0_0 + flow_15_14_0_0 + flow_16_14_0_0
   + flow_18_14_0_0 + flow_19_14_0_0 = 1
 one_parent_15: edge_3_15_0_0 + edge_4_15_0_0 + edge_7_15_0_0
   + edge_9_15_0_0 + edge_12_15_0_0 + edge_13_15_0_0 + edge_14_15_0_0
   + edge_16_15_0_0 + edge_18_15_0_0 + edge_19_15_0_0 = 1
 consume_one_flow_unit_15: flow_3_15_0_0 + flow_4_15_0_0 + flow_7_15_0_0
   + flow_9_15_0_0 + flow_12_15_0_0 + flow_13_15_0_0 + flow_14_15_0_0
   - flow_15_3_0_0 - flow_15_7_0_0 - flow_15_9_0_0 - flow_15_12_0_0
   - flow_15_13_0_0 - flow_15_14_0_0 - flow_15_16_0_0 - flow_15_17_0_0
   - flow_15_18_0_0 - flow_15_19_0_0 - flow_15_20_0_0 + flow_16_15_0_0
   + flow_18_15_0_0 + flow_19_15_0_0 = 1
 one_parent_16: edge_0_16_0_0 + edge_3_16_0_0 + edge_5_16_0_0
   + edge_7_16_0_0 + edge_8_16_0_0 + edge_9_16_0_0 + edge_11_16_0_0
   + edge_12_16_0_0 + edge_13_16_0_0 + edge_14_16_0_0 + edge_15_16_0_0
   + edge_17_16_0_0 + edge_18_16_0_0 + edge_19_16_0_0 = 1
 consume_one_flow_unit_16: flow_0_16_0_0 + flow_3_16_0_0 + flow_5_16_0_0
   + flow_7_16_0_0 + flow_8_16_0_0 + flow_9_16_0_0 + flow_11_16_0_0
   + flow_12_16_0_0 + flow_13_16_0_0 + flow_14_16_0_0 + flow_15_16_0_0
   - flow_16_1_0_0 - flow_16_2_0_0 - flow_16_3_0_0 - flow_16_4_0_0
   - flow_16_6_0_0 - flow_16_7_0_0 - flow_16_10_0_0 - flow_16_11_0_0
   - flow_16_12_0_0 - flow_16_13_0_0 - flow_16_14_0_0 - flow_16_15_0_0
   - flow_16_17_0_0 - flow_16_18_0_0 - flow_16_19_0_0 - flow_16_20_0_0
   + flow_17_16_0_0 + flow_18_16_0_0 + flow_19_16_0_0 = 1
 one_parent_17: edge_3_17_0_0 + edge_4_17_0_0 + edge_5_17_0_0
   + edge_7_17_0_0 + edge_8_17_0_0 + edge_9_17_0_0 + edge_13_17_0_0
   + edge_14_17_0_0 + edge_15_17_0_0 + edge_16_17_0_0 + edge_18_17_0_0
   + edge_19_17_0_0 = 1
 consume_one_flow_unit_17: flow_3_17_0_0 + flow_4_17_0_0 + flow_5_17_0_0
   + flow_7_17_0_0 + flow_8_17_0_0 + flow_9_17_0_0 + flow_13_17_0_0
   + flow_14_17_0_0 + flow_15_17_0_0 + flow_16_17_0_0 - flow_17_16_0_0
   - flow_17_18_0_0 - flow_17_19_0_0 + flow_18_17_0_0 + flow_19_17_0_0 = 1
 one_parent_18: edge_3_18_0_0 + edge_7_18_0_0 + edge_12_18_0_0
   + edge_13_18_0_0 + edge_14_18_0_0 + edge_15_18_0_0 + edge_16_18_0_0
   + edge_17_18_0_0 + edge_19_18_0_0 = 1
 consume_one_flow_unit_18: flow_3_18_0_0 + flow_7_18_0_0 + flow_12_18_0_0
   + flow_13_18_0_0 + flow_14_18_0_0 + flow_15_18_0_0 + flow_16_18_0_0
   + flow_17_18_0_0 - flow_18_13_0_0 - flow_18_14_0_0 - flow_18_15_0_0
   - flow_18_16_0_0 - flow_18_17_0_0 - flow_18_19_0_0 - flow_18_20_0_0
   + flow_19_18_0_0 = 1
 one_parent_19: edge_0_19_0_0 + edge_2_19_0_0 + edge_3_19_0_0
   + edge_5_19_0_0 + edge_7_19_0_0 + edge_8_19_0_0 + edge_9_19_0_0
   + edge_12_19_0_0 + edge_13_19_0_0 + edge_14_19_0_0 + edge_15_19_0_0
   + edge_16_19_0_0 + edge_17_19_0_0 + edge_18_19_0_0 + edge_20_19_0_0 = 1
 consume_one_flow_unit_19: flow_0_19_0_0 + flow_2_19_0_0 + flow_3_19_0_0
   + flow_5_19_0_0 + flow_7_19_0_0 + flow_8_19_0_0 + flow_9_19_0_0
   + flow_12_19_0_0 + flow_13_19_0_0 + flow_14_19_0_0 + flow_15_19_0_0
   + flow_16_19_0_0 + flow_17_19_0_0 + flow_18_19_0_0 - flow_19_1_0_0
   - flow_19_2_0_0 - flow_19_3_0_0 - flow_19_5_0_0 - flow_19_7_0_0
   - flow_19_9_0_0 - flow_19_10_0_0 - flow_19_11_0_0 - flow_19_12_0_0
   - flow_19_13_0_0 - flow_19_14_0_0 - flow_19_15_0_0 - flow_19_16_0_0
   - flow_19_17_0_0 - flow_19_18_0_0 - flow_19_20_0_0 + flow_20_19_0_0 = 1
 one_parent_20: edge_2_20_0_0 + edge_3_20_0_0 + edge_5_20_0_0
   + edge_7_20_0_0 + edge_8_20_0_0 + edge_9_20_0_0 + edge_11_20_0_0
   + edge_13_20_0_0 + edge_14_20_0_0 + edge_15_20_0_0 + edge_16_20_0_0
   + edge_18_20_0_0 + edge_19_20_0_0 = 1
 consume_one_flow_unit_20: flow_2_20_0_0 + flow_3_20_0_0 + flow_5_20_0_0
   + flow_7_20_0_0 + flow_8_20_0_0 + flow_9_20_0_0 + flow_11_20_0_0
   + flow_13_20_0_0 + flow_14_20_0_0 + flow_15_20_0_0 + flow_16_20_0_0
   + flow_18_20_0_0 + flow_19_20_0_0 - flow_20_19_0_0 = 1
 root_flow: flow_0_1_0_0 + flow_0_2_0_0 + flow_0_3_0_0 + flow_0_4_0_0
   + flow_0_5_0_0 + flow_0_6_0_0 + flow_0_7_0_0 + flow_0_8_0_0
   + flow_0_9_0_0 + flow_0_14_0_0 + flow_0_16_0_0 + flow_0_19_0_0 = 20
 inactive_no_flow_0_1_0_0: flow_0_1_0_0 - 1000 edge_0_1_0_0 <= 0
 inactive_no_flow_0_2_0_0: flow_0_2_0_0 - 1000 edge_0_2_0_0 <= 0
 inactive_no_flow_0_3_0_0: flow_0_3_0_0 - 1000 edge_0_3_0_0 <= 0
 inactive_no_flow_0_4_0_0: flow_0_4_0_0 - 1000 edge_0_4_0_0 <= 0
 inactive_no_flow_0_5_0_0: flow_0_5_0_0 - 1000 edge_0_5_0_0 <= 0
 inactive_no_flow_0_6_0_0: flow_0_6_0_0 - 1000 edge_0_6_0_0 <= 0
 inactive_no_flow_0_7_0_0: flow_0_7_0_0 - 1000 edge_0_7_0_0 <= 0
 inactive_no_flow_0_8_0_0: flow_0_8_0_0 - 1000 edge_0_8_0_0 <= 0
 inactive_no_flow_0_9_0_0: flow_0_9_0_0 - 1000 edge_0_9_0_0 <= 0
 inactive_no_flow_0_14_0_0: flow_0_14_0_0 - 1000 edge_0_14_0_0 <= 0
 inactive_no_flow_0_16_0_0: flow_0_16_0_0 - 1000 edge_0_16_0_0 <= 0
 inactive_no_flow_0_19_0_0: flow_0_19_0_0 - 1000 edge_0_19_0_0 <= 0
 inactive_no_flow_1_2_0_0: flow_1_2_0_0 - 1000 edge_1_2_0_0 <= 0
 inactive_no_flow_1_3_0_0: flow_1_3_0_0 - 1000 edge_1_3_0_0 <= 0
 inactive_no_flow_1_5_0_0: flow_1_5_0_0 - 1000 edge_1_5_0_0 <= 0
 inactive_no_flow_1_7_0_0: flow_1_7_0_0 - 1000 edge_1_7_0_0 <= 0
 inactive_no_flow_1_8_0_0: flow_1_8_0_0 - 1000 edge_1_8_0_0 <= 0
 inactive_no_flow_1_9_0_0: flow_1_9_0_0 - 1000 edge_1_9_0_0 <= 0
 inactive_no_flow_2_1_0_0: flow_2_1_0_0 - 1000 edge_2_1_0_0 <= 0
 inactive_no_flow_2_3_0_0: flow_2_3_0_0 - 1000 edge_2_3_0_0 <= 0
 inactive_no_flow_2_4_0_0: flow_2_4_0_0 - 1000 edge_2_4_0_0 <= 0
 inactive_no_flow_2_5_0_0: flow_2_5_0_0 - 1000 edge_2_5_0_0 <= 0
 inactive_no_flow_2_6_0_0: flow_2_6_0_0 - 1000 edge_2_6_0_0 <= 0
 inactive_no_flow_2_7_0_0: flow_2_7_0_0 - 1000 edge_2_7_0_0 <= 0
 inactive_no_flow_2_8_0_0: flow_2_8_0_0 - 1000 edge_2_8_0_0 <= 0
 inactive_no_flow_2_9_0_0: flow_2_9_0_0 - 1000 edge_2_9_0_0 <= 0
 inactive_no_flow_2_10_0_0: flow_2_10_0_0 - 1000 edge_2_10_0_0 <= 0
 inactive_no_flow_2_11_0_0: flow_2_11_0_0 - 1000 edge_2_11_0_0 <= 0
 inactive_no_flow_2_14_0_0: flow_2_14_0_0 - 1000 edge_2_14_0_0 <= 0
 inactive_no_flow_2_19_0_0: flow_2_19_0_0 - 1000 edge_2_19_0_0 <= 0
 inactive_no_flow_2_20_0_0: flow_2_20_0_0 - 1000 edge_2_20_0_0 <= 0
 inactive_no_flow_3_1_0_0: flow_3_1_0_0 - 1000 edge_3_1_0_0 <= 0
 inactive_no_flow_3_2_0_0: flow_3_2_0_0 - 1000 edge_3_2_0_0 <= 0
 inactive_no_flow_3_4_0_0: flow_3_4_0_0 - 1000 edge_3_4_0_0 <= 0
 inactive_no_flow_3_6_0_0: flow_3_6_0_0 - 1000 edge_3_6_0_0 <= 0
 inactive_no_flow_3_7_0_0: flow_3_7_0_0 - 1000 edge_3_7_0_0 <= 0
 inactive_no_flow_3_9_0_0: flow_3_9_0_0 - 1000 edge_3_9_0_0 <= 0
 inactive_no_flow_3_10_0_0: flow_3_10_0_0 - 1000 edge_3_10_0_0 <= 0
 inactive_no_flow_3_12_0_0: flow_3_12_0_0 - 1000 edge_3_12_0_0 <= 0
 inactive_no_flow_3_13_0_0: flow_3_13_0_0 - 1000 edge_3_13_0_0 <= 0
 inactive_no_flow_3_14_0_0: flow_3_14_0_0 - 1000 edge_3_14_0_0 <= 0
 inactive_no_flow_3_15_0_0: flow_3_15_0_0 - 1000 edge_3_15_0_0 <= 0
 inactive_no_flow_3_16_0_0: flow_3_16_0_0 - 1000 edge_3_16_0_0 <= 0
 inactive_no_flow_3_17_0_0: flow_3_17_0_0 - 1000 edge_3_17_0_0 <= 0
 inactive_no_flow_3_18_0_0: flow_3_18_0_0 - 1000 edge_3_18_0_0 <= 0
 inactive_no_flow_3_19_0_0: flow_3_19_0_0 - 1000 edge_3_19_0_0 <= 0
 inactive_no_flow_3_20_0_0: flow_3_20_0_0 - 1000 edge_3_20_0_0 <= 0
 inactive_no_flow_4_1_0_0: flow_4_1_0_0 - 1000 edge_4_1_0_0 <= 0
 inactive_no_flow_4_2_0_0: flow_4_2_0_0 - 1000 edge_4_2_0_0 <= 0
 inactive_no_flow_4_3_0_0: flow_4_3_0_0 - 1000 edge_4_3_0_0 <= 0
 inactive_no_flow_4_6_0_0: flow_4_6_0_0 - 1000 edge_4_6_0_0 <= 0
 inactive_no_flow_4_7_0_0: flow_4_7_0_0 - 1000 edge_4_7_0_0 <= 0
 inactive_no_flow_4_10_0_0: flow_4_10_0_0 - 1000 edge_4_10_0_0 <= 0
 inactive_no_flow_4_12_0_0: flow_4_12_0_0 - 1000 edge_4_12_0_0 <= 0
 inactive_no_flow_4_13_0_0: flow_4_13_0_0 - 1000 edge_4_13_0_0 <= 0
 inactive_no_flow_4_15_0_0: flow_4_15_0_0 - 1000 edge_4_15_0_0 <= 0
 inactive_no_flow_4_17_0_0: flow_4_17_0_0 - 1000 edge_4_17_0_0 <= 0
 inactive_no_flow_5_1_0_0: flow_5_1_0_0 - 1000 edge_5_1_0_0 <= 0
 inactive_no_flow_5_2_0_0: flow_5_2_0_0 - 1000 edge_5_2_0_0 <= 0
 inactive_no_flow_5_7_0_0: flow_5_7_0_0 - 1000 edge_5_7_0_0 <= 0
 inactive_no_flow_5_8_0_0: flow_5_8_0_0 - 1000 edge_5_8_0_0 <= 0
 inactive_no_flow_5_9_0_0: flow_5_9_0_0 - 1000 edge_5_9_0_0 <= 0
 inactive_no_flow_5_10_0_0: flow_5_10_0_0 - 1000 edge_5_10_0_0 <= 0
 inactive_no_flow_5_11_0_0: flow_5_11_0_0 - 1000 edge_5_11_0_0 <= 0
 inactive_no_flow_5_14_0_0: flow_5_14_0_0 - 1000 edge_5_14_0_0 <= 0
 inactive_no_flow_5_16_0_0: flow_5_16_0_0 - 1000 edge_5_16_0_0 <= 0
 inactive_no_flow_5_17_0_0: flow_5_17_0_0 - 1000 edge_5_17_0_0 <= 0
 inactive_no_flow_5_19_0_0: flow_5_19_0_0 - 1000 edge_5_19_0_0 <= 0
 inactive_no_flow_5_20_0_0: flow_5_20_0_0 - 1000 edge_5_20_0_0 <= 0
 inactive_no_flow_6_2_0_0: flow_6_2_0_0 - 1000 edge_6_2_0_0 <= 0
 inactive_no_flow_6_4_0_0: flow_6_4_0_0 - 1000 edge_6_4_0_0 <= 0
 inactive_no_flow_6_7_0_0: flow_6_7_0_0 - 1000 edge_6_7_0_0 <= 0
 inactive_no_flow_6_12_0_0: flow_6_12_0_0 - 1000 edge_6_12_0_0 <= 0
 inactive_no_flow_7_1_0_0: flow_7_1_0_0 - 1000 edge_7_1_0_0 <= 0
 inactive_no_flow_7_2_0_0: flow_7_2_0_0 - 1000 edge_7_2_0_0 <= 0
 inactive_no_flow_7_3_0_0: flow_7_3_0_0 - 1000 edge_7_3_0_0 <= 0
 inactive_no_flow_7_4_0_0: flow_7_4_0_0 - 1000 edge_7_4_0_0 <= 0
 inactive_no_flow_7_5_0_0: flow_7_5_0_0 - 1000 edge_7_5_0_0 <= 0
 inactive_no_flow_7_6_0_0: flow_7_6_0_0 - 1000 edge_7_6_0_0 <= 0
 inactive_no_flow_7_7_0_0: flow_7_7_0_0 - 1000 edge_7_7_0_0 <= 0
 inactive_no_flow_7_8_0_0: flow_7_8_0_0 - 1000 edge_7_8_0_0 <= 0
 inactive_no_flow_7_9_0_0: flow_7_9_0_0 - 1000 edge_7_9_0_0 <= 0
 inactive_no_flow_7_10_0_0: flow_7_10_0_0 - 1000 edge_7_10_0_0 <= 0
 inactive_no_flow_7_11_0_0: flow_7_11_0_0 - 1000 edge_7_11_0_0 <= 0
 inactive_no_flow_7_12_0_0: flow_7_12_0_0 - 1000 edge_7_12_0_0 <= 0
 inactive_no_flow_7_13_0_0: flow_7_13_0_0 - 1000 edge_7_13_0_0 <= 0
 inactive_no_flow_7_14_0_0: flow_7_14_0_0 - 1000 edge_7_14_0_0 <= 0
 inactive_no_flow_7_15_0_0: flow_7_15_0_0 - 1000 edge_7_15_0_0 <= 0
 inactive_no_flow_7_16_0_0: flow_7_16_0_0 - 1000 edge_7_16_0_0 <= 0
 inactive_no_flow_7_17_0_0: flow_7_17_0_0 - 1000 edge_7_17_0_0 <= 0
 inactive_no_flow_7_18_0_0: flow_7_18_0_0 - 1000 edge_7_18_0_0 <= 0
 inactive_no_flow_7_19_0_0: flow_7_19_0_0 - 1000 edge_7_19_0_0 <= 0
 inactive_no_flow_7_20_0_0: flow_7_20_0_0 - 1000 edge_7_20_0_0 <= 0
 inactive_no_flow_8_1_0_0: flow_8_1_0_0 - 1000 edge_8_1_0_0 <= 0
 inactive_no_flow_8_2_0_0: flow_8_2_0_0 - 1000 edge_8_2_0_0 <= 0
 inactive_no_flow_8_5_0_0: flow_8_5_0_0 - 1000 edge_8_5_0_0 <= 0
 inactive_no_flow_8_7_0_0: flow_8_7_0_0 - 1000 edge_8_7_0_0 <= 0
 inactive_no_flow_8_9_0_0: flow_8_9_0_0 - 1000 edge_8_9_0_0 <= 0
 inactive_no_flow_8_10_0_0: flow_8_10_0_0 - 1000 edge_8_10_0_0 <= 0
 inactive_no_flow_8_11_0_0: flow_8_11_0_0 - 1000 edge_8_11_0_0 <= 0
 inactive_no_flow_8_14_0_0: flow_8_14_0_0 - 1000 edge_8_14_0_0 <= 0
 inactive_no_flow_8_16_0_0: flow_8_16_0_0 - 1000 edge_8_16_0_0 <= 0
 inactive_no_flow_8_17_0_0: flow_8_17_0_0 - 1000 edge_8_17_0_0 <= 0
 inactive_no_flow_8_19_0_0: flow_8_19_0_0 - 1000 edge_8_19_0_0 <= 0
 inactive_no_flow_8_20_0_0: flow_8_20_0_0 - 1000 edge_8_20_0_0 <= 0
 inactive_no_flow_9_1_0_0: flow_9_1_0_0 - 1000 edge_9_1_0_0 <= 0
 inactive_no_flow_9_2_0_0: flow_9_2_0_0 - 1000 edge_9_2_0_0 <= 0
 inactive_no_flow_9_3_0_0: flow_9_3_0_0 - 1000 edge_9_3_0_0 <= 0
 inactive_no_flow_9_5_0_0: flow_9_5_0_0 - 1000 edge_9_5_0_0 <= 0
 inactive_no_flow_9_6_0_0: flow_9_6_0_0 - 1000 edge_9_6_0_0 <= 0
 inactive_no_flow_9_7_0_0: flow_9_7_0_0 - 1000 edge_9_7_0_0 <= 0
 inactive_no_flow_9_8_0_0: flow_9_8_0_0 - 1000 edge_9_8_0_0 <= 0
 inactive_no_flow_9_10_0_0: flow_9_10_0_0 - 1000 edge_9_10_0_0 <= 0
 inactive_no_flow_9_11_0_0: flow_9_11_0_0 - 1000 edge_9_11_0_0 <= 0
 inactive_no_flow_9_12_0_0: flow_9_12_0_0 - 1000 edge_9_12_0_0 <= 0
 inactive_no_flow_9_13_0_0: flow_9_13_0_0 - 1000 edge_9_13_0_0 <= 0
 inactive_no_flow_9_14_0_0: flow_9_14_0_0 - 1000 edge_9_14_0_0 <= 0
 inactive_no_flow_9_15_0_0: flow_9_15_0_0 - 1000 edge_9_15_0_0 <= 0
 inactive_no_flow_9_16_0_0: flow_9_16_0_0 - 1000 edge_9_16_0_0 <= 0
 inactive_no_flow_9_17_0_0: flow_9_17_0_0 - 1000 edge_9_17_0_0 <= 0
 inactive_no_flow_9_19_0_0: flow_9_19_0_0 - 1000 edge_9_19_0_0 <= 0
 inactive_no_flow_9_20_0_0: flow_9_20_0_0 - 1000 edge_9_20_0_0 <= 0
 inactive_no_flow_10_1_0_0: flow_10_1_0_0 - 1000 edge_10_1_0_0 <= 0
 inactive_no_flow_10_6_0_0: flow_10_6_0_0 - 1000 edge_10_6_0_0 <= 0
 inactive_no_flow_10_7_0_0: flow_10_7_0_0 - 1000 edge_10_7_0_0 <= 0
 inactive_no_flow_11_1_0_0: flow_11_1_0_0 - 1000 edge_11_1_0_0 <= 0
 inactive_no_flow_11_2_0_0: flow_11_2_0_0 - 1000 edge_11_2_0_0 <= 0
 inactive_no_flow_11_5_0_0: flow_11_5_0_0 - 1000 edge_11_5_0_0 <= 0
 inactive_no_flow_11_7_0_0: flow_11_7_0_0 - 1000 edge_11_7_0_0 <= 0
 inactive_no_flow_11_8_0_0: flow_11_8_0_0 - 1000 edge_11_8_0_0 <= 0
 inactive_no_flow_11_9_0_0: flow_11_9_0_0 - 1000 edge_11_9_0_0 <= 0
 inactive_no_flow_11_10_0_0: flow_11_10_0_0 - 1000 edge_11_10_0_0 <= 0
 inactive_no_flow_11_14_0_0: flow_11_14_0_0 - 1000 edge_11_14_0_0 <= 0
 inactive_no_flow_11_16_0_0: flow_11_16_0_0 - 1000 edge_11_16_0_0 <= 0
 inactive_no_flow_11_20_0_0: flow_11_20_0_0 - 1000 edge_11_20_0_0 <= 0
 inactive_no_flow_12_1_0_0: flow_12_1_0_0 - 1000 edge_12_1_0_0 <= 0
 inactive_no_flow_12_9_0_0: flow_12_9_0_0 - 1000 edge_12_9_0_0 <= 0
 inactive_no_flow_12_10_0_0: flow_12_10_0_0 - 1000 edge_12_10_0_0 <= 0
 inactive_no_flow_12_13_0_0: flow_12_13_0_0 - 1000 edge_12_13_0_0 <= 0
 inactive_no_flow_12_14_0_0: flow_12_14_0_0 - 1000 edge_12_14_0_0 <= 0
 inactive_no_flow_12_15_0_0: flow_12_15_0_0 - 1000 edge_12_15_0_0 <= 0
 inactive_no_flow_12_16_0_0: flow_12_16_0_0 - 1000 edge_12_16_0_0 <= 0
 inactive_no_flow_12_18_0_0: flow_12_18_0_0 - 1000 edge_12_18_0_0 <= 0
 inactive_no_flow_12_19_0_0: flow_12_19_0_0 - 1000 edge_12_19_0_0 <= 0
 inactive_no_flow_13_10_0_0: flow_13_10_0_0 - 1000 edge_13_10_0_0 <= 0
 inactive_no_flow_13_12_0_0: flow_13_12_0_0 - 1000 edge_13_12_0_0 <= 0
 inactive_no_flow_13_14_0_0: flow_13_14_0_0 - 1000 edge_13_14_0_0 <= 0
 inactive_no_flow_13_15_0_0: flow_13_15_0_0 - 1000 edge_13_15_0_0 <= 0
 inactive_no_flow_13_16_0_0: flow_13_16_0_0 - 1000 edge_13_16_0_0 <= 0
 inactive_no_flow_13_17_0_0: flow_13_17_0_0 - 1000 edge_13_17_0_0 <= 0
 inactive_no_flow_13_18_0_0: flow_13_18_0_0 - 1000 edge_13_18_0_0 <= 0
 inactive_no_flow_13_19_0_0: flow_13_19_0_0 - 1000 edge_13_19_0_0 <= 0
 inactive_no_flow_13_20_0_0: flow_13_20_0_0 - 1000 edge_13_20_0_0 <= 0
 inactive_no_flow_14_1_0_0: flow_14_1_0_0 - 1000 edge_14_1_0_0 <= 0
 inactive_no_flow_14_2_0_0: flow_14_2_0_0 - 1000 edge_14_2_0_0 <= 0
 inactive_no_flow_14_3_0_0: flow_14_3_0_0 - 1000 edge_14_3_0_0 <= 0
 inactive_no_flow_14_4_0_0: flow_14_4_0_0 - 1000 edge_14_4_0_0 <= 0
 inactive_no_flow_14_5_0_0: flow_14_5_0_0 - 1000 edge_14_5_0_0 <= 0
 inactive_no_flow_14_6_0_0: flow_14_6_0_0 - 1000 edge_14_6_0_0 <= 0
 inactive_no_flow_14_7_0_0: flow_14_7_0_0 - 1000 edge_14_7_0_0 <= 0
 inactive_no_flow_14_8_0_0: flow_14_8_0_0 - 1000 edge_14_8_0_0 <= 0
 inactive_no_flow_14_9_0_0: flow_14_9_0_0 - 1000 edge_14_9_0_0 <= 0
 inactive_no_flow_14_10_0_0: flow_14_10_0_0 - 1000 edge_14_10_0_0 <= 0
 inactive_no_flow_14_11_0_0: flow_14_11_0_0 - 1000 edge_14_11_0_0 <= 0
 inactive_no_flow_14_12_0_0: flow_14_12_0_0 - 1000 edge_14_12_0_0 <= 0
 inactive_no_flow_14_13_0_0: flow_14_13_0_0 - 1000 edge_14_13_0_0 <= 0
 inactive_no_flow_14_15_0_0: flow_14_15_0_0 - 1000 edge_14_15_0_0 <= 0
 inactive_no_flow_14_16_0_0: flow_14_16_0_0 - 1000 edge_14_16_0_0 <= 0
 inactive_no_flow_14_17_0_0: flow_14_17_0_0 - 1000 edge_14_17_0_0 <= 0
 inactive_no_flow_14_18_0_0: flow_14_18_0_0 - 1000 edge_14_18_0_0 <= 0
 inactive_no_flow_14_19_0_0: flow_14_19_0_0 - 1000 edge_14_19_0_0 <= 0
 inactive_no_flow_14_20_0_0: flow_14_20_0_0 - 1000 edge_14_20_0_0 <= 0
 inactive_no_flow_15_3_0_0: flow_15_3_0_0 - 1000 edge_15_3_0_0 <= 0
 inactive_no_flow_15_7_0_0: flow_15_7_0_0 - 1000 edge_15_7_0_0 <= 0
 inactive_no_flow_15_9_0_0: flow_15_9_0_0 - 1000 edge_15_9_0_0 <= 0
 inactive_no_flow_15_12_0_0: flow_15_12_0_0 - 1000 edge_15_12_0_0 <= 0
 inactive_no_flow_15_13_0_0: flow_15_13_0_0 - 1000 edge_15_13_0_0 <= 0
 inactive_no_flow_15_14_0_0: flow_15_14_0_0 - 1000 edge_15_14_0_0 <= 0
 inactive_no_flow_15_16_0_0: flow_15_16_0_0 - 1000 edge_15_16_0_0 <= 0
 inactive_no_flow_15_17_0_0: flow_15_17_0_0 - 1000 edge_15_17_0_0 <= 0
 inactive_no_flow_15_18_0_0: flow_15_18_0_0 - 1000 edge_15_18_0_0 <= 0
 inactive_no_flow_15_19_0_0: flow_15_19_0_0 - 1000 edge_15_19_0_0 <= 0
 inactive_no_flow_15_20_0_0: flow_15_20_0_0 - 1000 edge_15_20_0_0 <= 0
 inactive_no_flow_16_1_0_0: flow_16_1_0_0 - 1000 edge_16_1_0_0 <= 0
 inactive_no_flow_16_2_0_0: flow_16_2_0_0 - 1000 edge_16_2_0_0 <= 0
 inactive_no_flow_16_3_0_0: flow_16_3_0_0 - 1000 edge_16_3_0_0 <= 0
 inactive_no_flow_16_4_0_0: flow_16_4_0_0 - 1000 edge_16_4_0_0 <= 0
 inactive_no_flow_16_6_0_0: flow_16_6_0_0 - 1000 edge_16_6_0_0 <= 0
 inactive_no_flow_16_7_0_0: flow_16_7_0_0 - 1000 edge_16_7_0_0 <= 0
 inactive_no_flow_16_10_0_0: flow_16_10_0_0 - 1000 edge_16_10_0_0 <= 0
 inactive_no_flow_16_11_0_0: flow_16_11_0_0 - 1000 edge_16_11_0_0 <= 0
 inactive_no_flow_16_12_0_0: flow_16_12_0_0 - 1000 edge_16_12_0_0 <= 0
 inactive_no_flow_16_13_0_0: flow_16_13_0_0 - 1000 edge_16_13_0_0 <= 0
 inactive_no_flow_16_14_0_0: flow_16_14_0_0 - 1000 edge_16_14_0_0 <= 0
 inactive_no_flow_16_15_0_0: flow_16_15_0_0 - 1000 edge_16_15_0_0 <= 0
 inactive_no_flow_16_17_0_0: flow_16_17_0_0 - 1000 edge_16_17_0_0 <= 0
 inactive_no_flow_16_18_0_0: flow_16_18_0_0 - 1000 edge_16_18_0_0 <= 0
 inactive_no_flow_16_19_0_0: flow_16_19_0_0 - 1000 edge_16_19_0_0 <= 0
 inactive_no_flow_16_20_0_0: flow_16_20_0_0 - 1000 edge_16_20_0_0 <= 0
 inactive_no_flow_17_16_0_0: flow_17_16_0_0 - 1000 edge_17_16_0_0 <= 0
 inactive_no_flow_17_18_0_0: flow_17_18_0_0 - 1000 edge_17_18_0_0 <= 0
 inactive_no_flow_17_19_0_0: flow_17_19_0_0 - 1000 edge_17_19_0_0 <= 0
 inactive_no_flow_18_13_0_0: flow_18_13_0_0 - 1000 edge_18_13_0_0 <= 0
 inactive_no_flow_18_14_0_0: flow_18_14_0_0 - 1000 edge_18_14_0_0 <= 0
 inactive_no_flow_18_15_0_0: flow_18_15_0_0 - 1000 edge_18_15_0_0 <= 0
 inactive_no_flow_18_16_0_0: flow_18_16_0_0 - 1000 edge_18_16_0_0 <= 0
 inactive_no_flow_18_17_0_0: flow_18_17_0_0 - 1000 edge_18_17_0_0 <= 0
 inactive_no_flow_18_19_0_0: flow_18_19_0_0 - 1000 edge_18_19_0_0 <= 0
 inactive_no_flow_18_20_0_0: flow_18_20_0_0 - 1000 edge_18_20_0_0 <= 0
 inactive_no_flow_19_1_0_0: flow_19_1_0_0 - 1000 edge_19_1_0_0 <= 0
 inactive_no_flow_19_2_0_0: flow_19_2_0_0 - 1000 edge_19_2_0_0 <= 0
 inactive_no_flow_19_3_0_0: flow_19_3_0_0 - 1000 edge_19_3_0_0 <= 0
 inactive_no_flow_19_5_0_0: flow_19_5_0_0 - 1000 edge_19_5_0_0 <= 0
 inactive_no_flow_19_7_0_0: flow_19_7_0_0 - 1000 edge_19_7_0_0 <= 0
 inactive_no_flow_19_9_0_0: flow_19_9_0_0 - 1000 edge_19_9_0_0 <= 0
 inactive_no_flow_19_10_0_0: flow_19_10_0_0 - 1000 edge_19_10_0_0 <= 0
 inactive_no_flow_19_11_0_0: flow_19_11_0_0 - 1000 edge_19_11_0_0 <= 0
 inactive_no_flow_19_12_0_0: flow_19_12_0_0 - 1000 edge_19_12_0_0 <= 0
 inactive_no_flow_19_13_0_0: flow_19_13_0_0 - 1000 edge_19_13_0_0 <= 0
 inactive_no_flow_19_14_0_0: flow_19_14_0_0 - 1000 edge_19_14_0_0 <= 0
 inactive_no_flow_19_15_0_0: flow_19_15_0_0 - 1000 edge_19_15_0_0 <= 0
 inactive_no_flow_19_16_0_0: flow_19_16_0_0 - 1000 edge_19_16_0_0 <= 0
 inactive_no_flow_19_17_0_0: flow_19_17_0_0 - 1000 edge_19_17_0_0 <= 0
 inactive_no_flow_19_18_0_0: flow_19_18_0_0 - 1000 edge_19_18_0_0 <= 0
 inactive_no_flow_19_20_0_0: flow_19_20_0_0 - 1000 edge_19_20_0_0 <= 0
 inactive_no_flow_20_19_0_0: flow_20_19_0_0 - 1000 edge_20_19_0_0 <= 0
Bounds
Binaries
 edge_0_1_0_0 edge_0_2_0_0 edge_0_3_0_0 edge_0_4_0_0 edge_0_5_0_0
 edge_0_6_0_0 edge_0_7_0_0 edge_0_8_0_0 edge_0_9_0_0 edge_0_14_0_0
 edge_0_16_0_0 edge_0_19_0_0 edge_1_2_0_0 edge_1_3_0_0 edge_1_5_0_0
 edge_1_7_0_0 edge_1_8_0_0 edge_1_9_0_0 edge_2_1_0_0 edge_2_3_0_0
 edge_2_4_0_0 edge_2_5_0_0 edge_2_6_0_0 edge_2_7_0_0 edge_2_8_0_0
 edge_2_9_0_0 edge_2_10_0_0 edge_2_11_0_0 edge_2_14_0_0 edge_2_19_0_0
 edge_2_20_0_0 edge_3_1_0_0 edge_3_2_0_0 edge_3_4_0_0 edge_3_6_0_0
 edge_3_7_0_0 edge_3_9_0_0 edge_3_10_0_0 edge_3_12_0_0 edge_3_13_0_0
 edge_3_14_0_0 edge_3_15_0_0 edge_3_16_0_0 edge_3_17_0_0 edge_3_18_0_0
 edge_3_19_0_0 edge_3_20_0_0 edge_4_1_0_0 edge_4_2_0_0 edge_4_3_0_0
 edge_4_6_0_0 edge_4_7_0_0 edge_4_10_0_0 edge_4_12_0_0 edge_4_13_0_0
 edge_4_15_0_0 edge_4_17_0_0 edge_5_1_0_0 edge_5_2_0_0 edge_5_7_0_0
 edge_5_8_0_0 edge_5_9_0_0 edge_5_10_0_0 edge_5_11_0_0 edge_5_14_0_0
 edge_5_16_0_0 edge_5_17_0_0 edge_5_19_0_0 edge_5_20_0_0 edge_6_2_0_0
 edge_6_4_0_0 edge_6_7_0_0 edge_6_12_0_0 edge_7_1_0_0 edge_7_2_0_0
 edge_7_3_0_0 edge_7_4_0_0 edge_7_5_0_0 edge_7_6_0_0 edge_7_7_0_0
 edge_7_8_0_0 edge_7_9_0_0 edge_7_10_0_0 edge_7_11_0_0 edge_7_12_0_0
 edge_7_13_0_0 edge_7_14_0_0 edge_7_15_0_0 edge_7_16_0_0 edge_7_17_0_0
 edge_7_18_0_0 edge_7_19_0_0 edge_7_20_0_0 edge_8_1_0_0 edge_8_2_0_0
 edge_8_5_0_0 edge_8_7_0_0 edge_8_9_0_0 edge_8_10_0_0 edge_8_11_0_0
 edge_8_14_0_0 edge_8_16_0_0 edge_8_17_0_0 edge_8_19_0_0 edge_8_20_0_0
 edge_9_1_0_0 edge_9_2_0_0 edge_9_3_0_0 edge_9_5_0_0 edge_9_6_0_0
 edge_9_7_0_0 edge_9_8_0_0 edge_9_10_0_0 edge_9_11_0_0 edge_9_12_0_0
 edge_9_13_0_0 edge_9_14_0_0 edge_9_15_0_0 edge_9_16_0_0 edge_9_17_0_0
 edge_9_19_0_0 edge_9_20_0_0 edge_10_1_0_0 edge_10_6_0_0 edge_10_7_0_0
 edge_11_1_0_0 edge_11_2_0_0 edge_11_5_0_0 edge_11_7_0_0 edge_11_8_0_0
 edge_11_9_0_0 edge_11_10_0_0 edge_11_14_0_0 edge_11_16_0_0 edge_11_20_0_0
 edge_12_1_0_0 edge_12_9_0_0 edge_12_10_0_0 edge_12_13_0_0 edge_12_14_0_0
 edge_12_15_0_0 edge_12_16_0_0 edge_12_18_0_0 edge_12_19_0_0 edge_13_10_0_0
 edge_13_12_0_0 edge_13_14_0_0 edge_13_15_0_0 edge_13_16_0_0 edge_13_17_0_0
 edge_13_18_0_0 edge_13_19_0_0 edge_13_20_0_0 edge_14_1_0_0 edge_14_2_0_0
 edge_14_3_0_0 edge_14_4_0_0 edge_14_5_0_0 edge_14_6_0_0 edge_14_7_0_0
 edge_14_8_0_0 edge_14_9_0_0 edge_14_10_0_0 edge_14_11_0_0 edge_14_12_0_0
 edge_14_13_0_0 edge_14_15_0_0 edge_14_16_0_0 edge_14_17_0_0 edge_14_18_0_0
 edge_14_19_0_0 edge_14_20_0_0 edge_15_3_0_0 edge_15_7_0_0 edge_15_9_0_0
 edge_15_12_0_0 edge_15_13_0_0 edge_15_14_0_0 edge_15_16_0_0 edge_15_17_0_0
 edge_15_18_0_0 edge_15_19_0_0 edge_15_20_0_0 edge_16_1_0_0 edge_16_2_0_0
 edge_16_3_0_0 edge_16_4_0_0 edge_16_6_0_0 edge_16_7_0_0 edge_16_10_0_0
 edge_16_11_0_0 edge_16_12_0_0 edge_16_13_0_0 edge_16_14_0_0 edge_16_15_0_0
 edge_16_17_0_0 edge_16_18_0_0 edge_16_19_0_0 edge_16_20_0_0 edge_17_16_0_0
 edge_17_18_0_0 edge_17_19_0_0 edge_18_13_0_0 edge_18_14_0_0 edge_18_15_0_0
 edge_18_16_0_0 edge_18_17_0_0 edge_18_19_0_0 edge_18_20_0_0 edge_19_1_0_0
 edge_19_2_0_0 edge_19_3_0_0 edge_19_5_0_0 edge_19_7_0_0 edge_19_9_0_0
 edge_19_10_0_0 edge_19_11_0_0 edge_19_12_0_0 edge_19_13_0_0 edge_19_14_0_0
 edge_19_15_0_0 edge_19_16_0_0 edge_19_17_0_0 edge_19_18_0_0 edge_19_20_0_0
 edge_20_19_0_0
End
